%chk=benzene.chk
# hf/3-21g geom=connectivity

Title Card Required

0 1
 C                 -2.15901100   -0.84081909    0.00000000
 C                 -0.76385100   -0.84081909    0.00000000
 C                 -0.06631300    0.36693191    0.00000000
 C                 -0.76396700    1.57544091   -0.00119900
 C                 -2.15879200    1.57536291   -0.00167800
 C                 -2.85639300    0.36715691   -0.00068200
 H                 -2.70877000   -1.79313609    0.00045000
 H                 -0.21434300   -1.79333209    0.00131500
 H                  1.03336700    0.36701191    0.00063400
 H                 -0.21376700    2.52758391   -0.00125800
 H                 -2.70891400    2.52764391   -0.00263100
 H                 -3.95599700    0.36733991   -0.00086200

 1 2 1.5 6 1.5 7 1.0
 2 3 1.5 8 1.0
 3 4 1.5 9 1.0
 4 5 1.5 10 1.0
 5 6 1.5 11 1.0
 6 12 1.0
 7
 8
 9
 10
 11
 12

